param bias_3:=
1 -0.00109076 
2 -0.00098094  
3 0.00318821 
4 -0.0135238  
5 -0.04183158  
6 0.0094426
7 -0.00730775  
8 0.02141739 
9 -0.02918374 
10 -0.01257756 
11 -0.06231103  
12 0.01591286
13  0.06814718 
14 -0.04487807  
15 0.03116526  
16 0.04753676
;
